1087.19 0
0 95 37 38 39 42 41 44 47 46 49 50 51 48 45 43 40 0 
0 107 104 103 116 115 109 8 12 13 14 15 1 2 81 119 0 
0 87 91 90 18 118 108 6 5 3 4 10 11 9 7 83 113 117 84 112 0 
0 120 105 106 102 101 99 100 97 94 96 93 92 89 85 86 111 82 88 0 
0 98 73 76 68 77 79 80 78 72 75 74 71 70 69 67 0 
0 16 17 20 19 25 22 24 27 30 33 31 34 36 29 35 32 28 23 26 21 114 0 
0 110 52 54 57 59 65 61 62 66 64 63 60 56 58 55 53 0 
